NAME 
ROWS
 N  OBJ
 L  R0      
 L  R1      
 L  R2      
 E  R3      
COLUMNS
    MARKER    'MARKER'                 'INTORG'
    I0(4)     OBJ       -489
    I0(4)     R0        -131
    I0(4)     R1        -842
    I0(4)     R2        -35
    I0(4)     R3        498
    I1(4)     OBJ       -552
    I1(4)     R0        -461
    I1(4)     R1        -668
    I1(4)     R2        -925
    I1(4)     R3        487
    I2(4)     OBJ       -798
    I2(4)     R0        -285
    I2(4)     R1        -644
    I2(4)     R2        -264
    I2(4)     R3        336
    I3(4)     OBJ       -893
    I3(4)     R0        -972
    I3(4)     R1        -965
    I3(4)     R2        -657
    I3(4)     R3        683
    I4(4)     OBJ       -63
    I4(4)     R0        -498
    I4(4)     R1        -846
    I4(4)     R2        -568
    I4(4)     R3        245
    I5(4)     OBJ       -975
    I5(4)     R0        -956
    I5(4)     R1        -98
    I5(4)     R2        -176
    I5(4)     R3        702
    I6(4)     OBJ       -799
    I6(4)     R0        -597
    I6(4)     R1        -81
    I6(4)     R2        -341
    I6(4)     R3        366
    I7(4)     OBJ       -378
    I7(4)     R0        -397
    I7(4)     R1        -99
    I7(4)     R2        -186
    I7(4)     R3        959
    I8(4)     OBJ       -131
    I8(4)     R0        -531
    I8(4)     R1        -265
    I8(4)     R2        -886
    I8(4)     R3        666
    I9(4)     OBJ       -132
    I9(4)     R0        -71
    I9(4)     R1        -725
    I9(4)     R2        -403
    I9(4)     R3        445
    I10(4)    OBJ       -607
    I10(4)    R0        -846
    I10(4)    R1        -474
    I10(4)    R2        -935
    I10(4)    R3        203
    I11(4)    OBJ       -895
    I11(4)    R0        -20
    I11(4)    R1        -395
    I11(4)    R2        -728
    I11(4)    R3        700
    I12(4)    OBJ       -123
    I12(4)    R0        -623
    I12(4)    R1        -185
    I12(4)    R2        -70
    I12(4)    R3        369
    I13(4)    OBJ       -178
    I13(4)    R0        -644
    I13(4)    R1        -758
    I13(4)    R2        -579
    I13(4)    R3        466
    I14(4)    OBJ       -455
    I14(4)    R0        -913
    I14(4)    R1        -367
    I14(4)    R2        -693
    I14(4)    R3        356
    I15(4)    OBJ       -117
    I15(4)    R0        -685
    I15(4)    R1        -683
    I15(4)    R2        -916
    I15(4)    R3        937
    I16(4)    OBJ       -253
    I16(4)    R0        -618
    I16(4)    R1        -714
    I16(4)    R2        -676
    I16(4)    R3        642
    I17(4)    OBJ       -167
    I17(4)    R0        -711
    I17(4)    R1        -964
    I17(4)    R2        -774
    I17(4)    R3        696
    I18(4)    OBJ       -644
    I18(4)    R0        -62
    I18(4)    R1        -79
    I18(4)    R2        -14
    I18(4)    R3        122
    I19(4)    OBJ       -375
    I19(4)    R0        -749
    I19(4)    R1        -245
    I19(4)    R2        -941
    I19(4)    R3        528
    I20(1)    R3        1
    MARKER    'MARKER'                 'INTEND'
RHS
    RHS1      R0        -5992
    RHS1      R1        -4858
    RHS1      R2        -5709
    RHS1      R3        5203
BOUNDS
 UP BND1      I0(4)     1
 UP BND1      I1(4)     1
 UP BND1      I2(4)     1
 UP BND1      I3(4)     1
 UP BND1      I4(4)     1
 UP BND1      I5(4)     1
 UP BND1      I6(4)     1
 UP BND1      I7(4)     1
 UP BND1      I8(4)     1
 UP BND1      I9(4)     1
 UP BND1      I10(4)    1
 UP BND1      I11(4)    1
 UP BND1      I12(4)    1
 UP BND1      I13(4)    1
 UP BND1      I14(4)    1
 UP BND1      I15(4)    1
 UP BND1      I16(4)    1
 UP BND1      I17(4)    1
 UP BND1      I18(4)    1
 UP BND1      I19(4)    1
 LI BND1      I20(1)    0
ENDATA
